(set-info :smt-lib-version 2.6)
(set-logic UF)
(set-info :source |
Generated by: David Deharbe, CLEARSY
Generated on: 2019-09-06
Generator: bxml;pog;pog2smt (Atelier B)
Application: B-method
Target solver: CVC4, Z3
|)
(set-info :license "https://creativecommons.org/licenses/by-nc/4.0/")
(set-info :category "industrial")
(set-info :status sat)
; Prelude
(declare-sort U 0)
(declare-fun |*i| (U U) U)
(declare-fun |+i| (U U) U)
(declare-fun |-i| (U U) U)
(declare-fun idiv (U U) U)
(declare-fun |*r| (U U) U)
(declare-fun |+r| (U U) U)
(declare-fun |-r| (U U) U)
(declare-fun rdiv (U U) U)
(declare-fun modulo (U U) U)
(declare-fun |<i| (U U) Bool)
(declare-fun |<=i| (U U) Bool)
(declare-fun |>i| (U U) Bool)
(declare-fun |>=i| (U U) Bool)
(declare-fun |<r| (U U) Bool)
(declare-fun |<=r| (U U) Bool)
(declare-fun |>r| (U U) Bool)
(declare-fun |>=r| (U U) Bool)
(declare-fun iuminus (U) U)
(declare-fun ruminus (U) U)
(declare-fun TRUE () U)
(declare-fun FALSE () U)
(assert (not (= TRUE FALSE)))
(declare-fun empty () U)
(declare-fun bool (Bool) U)
(declare-fun BOOL () U)
(declare-fun INT () U)
(declare-fun INTEGER () U)
(declare-fun NAT () U)
(declare-fun NAT1 () U)
(declare-fun NATURAL () U)
(declare-fun NATURAL1 () U)
(declare-fun FLOAT () U)
(declare-fun MaxInt () U)
(declare-fun MinInt () U)
(declare-fun |STRING| () U)
(declare-fun REAL () U)
(declare-fun set_prod (U U) U)
(declare-fun set_diff (U U) U)
(declare-fun mapplet (U U) U)
(declare-fun |**i| (U U) U)
(declare-fun |**r| (U U) U)
(declare-fun |+->| (U U) U)
(declare-fun |+->>| (U U) U)
(declare-fun |-->| (U U) U)
(declare-fun |-->>| (U U) U)
(declare-fun |<->| (U U) U)
(declare-fun |>+>| (U U) U)
(declare-fun |>->| (U U) U)
(declare-fun |>+>>| (U U) U)
(declare-fun |>->>| (U U) U)
(declare-fun |->| (U U) U)
(declare-fun interval (U U) U)
(declare-fun composition (U U) U)
(declare-fun binary_inter (U U) U)
(declare-fun restriction_head (U U) U)
(declare-fun semicolon (U U) U)
(declare-fun |<+| (U U) U)
(declare-fun |<-| (U U) U)
(declare-fun domain_subtraction (U U) U)
(declare-fun domain_restriction (U U) U)
(declare-fun |><| (U U) U)
(declare-fun parallel_product (U U) U)
(declare-fun binary_union (U U) U)
(declare-fun restriction_tail (U U) U)
(declare-fun concatenate (U U) U)
(declare-fun range_restriction (U U) U)
(declare-fun range_subtraction (U U) U)
(declare-fun image (U U) U)
(declare-fun apply (U U) U)
(declare-fun prj1 (U U) U)
(declare-fun prj2 (U U) U)
(declare-fun iterate (U U) U)
(declare-fun |const| (U U) U)
(declare-fun rank (U U) U)
(declare-fun father (U U) U)
(declare-fun subtree (U U) U)
(declare-fun arity (U U) U)
(declare-fun |+f| (U U) U)
(declare-fun |-f| (U U) U)
(declare-fun |*f| (U U) U)
(declare-fun |fdiv| (U U) U)
(declare-fun tbin (U U U) U)
(declare-fun son (U U U) U)
(declare-fun mem (U U) Bool)
(declare-fun subset (U U) Bool)
(declare-fun strict_subset (U U) Bool)
(declare-fun |<=f| (U U) Bool)
(declare-fun |<f| (U U) Bool)
(declare-fun |>=f| (U U) Bool)
(declare-fun |>f| (U U) Bool)
(declare-fun imax (U) U)
(declare-fun imin (U) U)
(declare-fun rmax (U) U)
(declare-fun rmin (U) U)
(declare-fun card (U) U)
(declare-fun dom (U) U)
(declare-fun ran (U) U)
(declare-fun POW (U) U)
(declare-fun POW1 (U) U)
(declare-fun FIN (U) U)
(declare-fun FIN1 (U) U)
(declare-fun union (U) U)
(declare-fun inter (U) U)
(declare-fun seq (U) U)
(declare-fun seq1 (U) U)
(declare-fun iseq (U) U)
(declare-fun iseq1 (U) U)
(declare-fun inverse (U) U)
(declare-fun size (U) U)
(declare-fun perm (U) U)
(declare-fun first (U) U)
(declare-fun last (U) U)
(declare-fun id (U) U)
(declare-fun closure (U) U)
(declare-fun closure1 (U) U)
(declare-fun tail (U) U)
(declare-fun front (U) U)
(declare-fun reverse (U) U)
(declare-fun rev (U) U)
(declare-fun conc (U) U)
(declare-fun succ (U) U)
(declare-fun pred (U) U)
(declare-fun rel (U) U)
(declare-fun fnc (U) U)
(declare-fun real (U) U)
(declare-fun floor (U) U)
(declare-fun ceiling (U) U)
(declare-fun tree (U) U)
(declare-fun btree (U) U)
(declare-fun top (U) U)
(declare-fun sons (U) U)
(declare-fun prefix (U) U)
(declare-fun postfix (U) U)
(declare-fun sizet (U) U)
(declare-fun mirror (U) U)
(declare-fun left (U) U)
(declare-fun right (U) U)
(declare-fun infix (U) U)
(declare-fun ubin (U) U)
(declare-fun SEQ (U) U)
(declare-fun SET (U) U)
; Opaque formulas
(declare-fun e0 () U)
(declare-fun e17 () U)
(declare-fun e19 () U)
(declare-fun e21 () U)
(declare-fun e23 () U)
(declare-fun e25 () U)
(declare-fun e27 () U)
(declare-fun e29 () U)
(declare-fun e31 () U)
(declare-fun e33 () U)
(declare-fun e35 () U)
(declare-fun e37 () U)
(declare-fun e39 () U)
(declare-fun e41 () U)
(declare-fun e43 () U)
(declare-fun e45 () U)
(declare-fun e47 () U)
(declare-fun e49 () U)
(declare-fun e51 () U)
(declare-fun e53 () U)
(declare-fun e55 () U)
(declare-fun e57 () U)
(declare-fun e59 () U)
(declare-fun e61 () U)
(declare-fun e63 () U)
(declare-fun e65 () U)
(declare-fun e67 () U)
(declare-fun e69 () U)
(declare-fun e71 () U)
(declare-fun e73 () U)
(declare-fun e75 () U)
(declare-fun e77 () U)
(declare-fun g_s0_1 () U)
(declare-fun g_s1_2 () U)
(declare-fun g_s10_11 () U)
(declare-fun g_s100_134 () U)
(declare-fun g_s101_137 () U)
(declare-fun g_s102_136 () U)
(declare-fun g_s103_139 () U)
(declare-fun g_s104_138 () U)
(declare-fun g_s105_141 () U)
(declare-fun g_s106_140 () U)
(declare-fun g_s107_143 () U)
(declare-fun g_s108_142 () U)
(declare-fun g_s109_145 () U)
(declare-fun g_s11_12 () U)
(declare-fun g_s110_144 () U)
(declare-fun g_s111_147 () U)
(declare-fun g_s112_146 () U)
(declare-fun g_s113_149 () U)
(declare-fun g_s114_148 () U)
(declare-fun g_s115_151 () U)
(declare-fun g_s116_150 () U)
(declare-fun g_s117_153 () U)
(declare-fun g_s118_152 () U)
(declare-fun g_s119_154 () U)
(declare-fun g_s12_13 () U)
(declare-fun g_s120_155 () U)
(declare-fun g_s121_156 () U)
(declare-fun g_s122_157 () U)
(declare-fun g_s13_14 () U)
(declare-fun g_s14_15 () U)
(declare-fun g_s15_16 () U)
(declare-fun g_s16_18 () U)
(declare-fun g_s17_20 () U)
(declare-fun g_s18_22 () U)
(declare-fun g_s19_24 () U)
(declare-fun g_s2_3 () U)
(declare-fun g_s20_26 () U)
(declare-fun g_s21_28 () U)
(declare-fun g_s22_30 () U)
(declare-fun g_s23_32 () U)
(declare-fun g_s24_34 () U)
(declare-fun g_s25_36 () U)
(declare-fun g_s26_38 () U)
(declare-fun g_s27_40 () U)
(declare-fun g_s28_42 () U)
(declare-fun g_s29_44 () U)
(declare-fun g_s3_4 () U)
(declare-fun g_s30_46 () U)
(declare-fun g_s31_48 () U)
(declare-fun g_s32_50 () U)
(declare-fun g_s33_52 () U)
(declare-fun g_s34_54 () U)
(declare-fun g_s35_56 () U)
(declare-fun g_s36_58 () U)
(declare-fun g_s37_60 () U)
(declare-fun g_s38_62 () U)
(declare-fun g_s39_64 () U)
(declare-fun g_s4_5 () U)
(declare-fun g_s40_66 () U)
(declare-fun g_s41_68 () U)
(declare-fun g_s42_70 () U)
(declare-fun g_s43_72 () U)
(declare-fun g_s44_74 () U)
(declare-fun g_s45_76 () U)
(declare-fun g_s46_78 () U)
(declare-fun g_s47_79 () U)
(declare-fun g_s49_81 () U)
(declare-fun g_s5_6 () U)
(declare-fun g_s50_82 () U)
(declare-fun g_s51_84 () U)
(declare-fun g_s52_85 () U)
(declare-fun g_s55_87 () U)
(declare-fun g_s56_88 () U)
(declare-fun g_s57_89 () U)
(declare-fun g_s58_91 () U)
(declare-fun g_s59_92 () U)
(declare-fun g_s6_7 () U)
(declare-fun g_s60_93 () U)
(declare-fun g_s63_95 () U)
(declare-fun g_s64_96 () U)
(declare-fun g_s65_97 () U)
(declare-fun g_s66_98 () U)
(declare-fun g_s67_100 () U)
(declare-fun g_s68_101 () U)
(declare-fun g_s69_102 () U)
(declare-fun g_s7_8 () U)
(declare-fun g_s70_103 () U)
(declare-fun g_s71_105 () U)
(declare-fun g_s72_106 () U)
(declare-fun g_s73_107 () U)
(declare-fun g_s74_109 () U)
(declare-fun g_s75_110 () U)
(declare-fun g_s76_111 () U)
(declare-fun g_s77_113 () U)
(declare-fun g_s78_114 () U)
(declare-fun g_s79_115 () U)
(declare-fun g_s8_9 () U)
(declare-fun g_s80_116 () U)
(declare-fun g_s81_117 () U)
(declare-fun g_s84_119 () U)
(declare-fun g_s85_120 () U)
(declare-fun g_s87_122 () U)
(declare-fun g_s88_124 () U)
(declare-fun g_s9_10 () U)
(declare-fun g_s90_125 () U)
(declare-fun g_s91_127 () U)
(declare-fun g_s92_126 () U)
(declare-fun g_s93_129 () U)
(declare-fun g_s94_128 () U)
(declare-fun g_s95_131 () U)
(declare-fun g_s96_130 () U)
(declare-fun g_s97_133 () U)
(declare-fun g_s98_132 () U)
(declare-fun g_s99_135 () U)
(declare-fun e112 () U)
(declare-fun e80 () U)
(declare-fun e83 () U)
(declare-fun e121 () U)
(declare-fun e123 () U)
(declare-fun e90 () U)
(declare-fun e86 () U)
(declare-fun e108 () U)
(declare-fun e104 () U)
(declare-fun e94 () U)
(declare-fun e99 () U)
(declare-fun e118 () U)
; Defines
(define-fun |def_B definitions| () Bool (and (= NAT (interval e0 MaxInt)) (= INT (interval MinInt MaxInt))))
(define-fun |def_ctx| () Bool (and (= g_s0_1 (SET (mapplet g_s3_4 (mapplet g_s2_3 g_s1_2)))) (= g_s4_5 BOOL) (= g_s5_6 BOOL) (= g_s6_7 INT) (= g_s7_8 INT) (= g_s8_9 INT) (= g_s9_10 g_s8_9) (= g_s10_11 g_s8_9) (= g_s11_12 g_s6_7) (= g_s12_13 g_s4_5) (= g_s13_14 INT) (= g_s14_15 INT) (= g_s15_16 e0) (= g_s16_18 e17) (= g_s17_20 e19) (= g_s18_22 e21) (= g_s19_24 e23) (= g_s20_26 e25) (= g_s21_28 e27) (= g_s22_30 e29) (= g_s23_32 e31) (= g_s24_34 e33) (= g_s25_36 e35) (= g_s26_38 e37) (= g_s27_40 e39) (= g_s28_42 e41) (= g_s29_44 e43) (= g_s30_46 e45) (= g_s31_48 e47) (= g_s32_50 e49) (= g_s33_52 e51) (= g_s34_54 e53) (= g_s35_56 e55) (= g_s36_58 e57) (= g_s37_60 e59) (= g_s38_62 e61) (= g_s39_64 e63) (= g_s40_66 e65) (= g_s41_68 e67) (= g_s42_70 e69) (= g_s43_72 e71) (= g_s44_74 e73) (= g_s45_76 e75) (= g_s46_78 e77) (mem g_s47_79 (|-->| BOOL BOOL)) (= g_s47_79 e80) (mem g_s49_81 (|-->| BOOL BOOL)) (= g_s49_81 g_s47_79) (mem g_s50_82 (|-->| BOOL BOOL)) (= g_s50_82 e83) (mem g_s51_84 (|-->| BOOL BOOL)) (= g_s51_84 g_s50_82) (mem g_s52_85 (|-->| (set_prod BOOL BOOL) BOOL)) (= g_s52_85 e86) (mem g_s55_87 (|-->| (set_prod BOOL BOOL) BOOL)) (= g_s55_87 g_s52_85) (mem g_s56_88 (|-->| (set_prod BOOL BOOL) BOOL)) (= g_s56_88 g_s52_85) (mem g_s57_89 (|-->| (set_prod BOOL BOOL) BOOL)) (= g_s57_89 e90) (mem g_s58_91 (|-->| (set_prod BOOL BOOL) BOOL)) (= g_s58_91 g_s57_89) (mem g_s59_92 (|-->| (set_prod BOOL BOOL) BOOL)) (= g_s59_92 g_s57_89) (mem g_s60_93 (|-->| (set_prod g_s6_7 g_s6_7) BOOL)) (= g_s60_93 e94) (mem g_s63_95 (|-->| (set_prod g_s6_7 g_s6_7) BOOL)) (= g_s63_95 g_s60_93) (mem g_s64_96 (|-->| (set_prod g_s6_7 g_s6_7) BOOL)) (= g_s64_96 g_s60_93) (mem g_s65_97 (|-->| (set_prod g_s6_7 g_s6_7) BOOL)) (= g_s65_97 g_s60_93) (mem g_s66_98 (|-->| (set_prod g_s6_7 g_s6_7) BOOL)) (= g_s66_98 e99) (mem g_s67_100 (|-->| (set_prod g_s6_7 g_s6_7) BOOL)) (= g_s67_100 g_s66_98) (mem g_s68_101 (|-->| (set_prod g_s6_7 g_s6_7) BOOL)) (= g_s68_101 g_s66_98) (mem g_s69_102 (|-->| (set_prod g_s6_7 g_s6_7) BOOL)) (= g_s69_102 g_s66_98) (mem g_s70_103 (|-->| (set_prod g_s6_7 g_s6_7) BOOL)) (= g_s70_103 e104) (mem g_s71_105 (|-->| (set_prod g_s6_7 g_s6_7) BOOL)) (= g_s71_105 g_s70_103) (mem g_s72_106 (|-->| (set_prod g_s6_7 g_s6_7) BOOL)) (= g_s72_106 g_s70_103) (mem g_s73_107 (|-->| (set_prod g_s6_7 g_s6_7) BOOL)) (= g_s73_107 e108) (mem g_s74_109 (|-->| (set_prod g_s6_7 g_s6_7) BOOL)) (= g_s74_109 g_s73_107) (mem g_s75_110 (|-->| (set_prod g_s6_7 g_s6_7) BOOL)) (= g_s75_110 g_s73_107) (mem g_s76_111 (|-->| BOOL BOOL)) (= g_s76_111 e112) (mem g_s77_113 (|-->| BOOL BOOL)) (= g_s77_113 e112) (mem g_s78_114 (|-->| BOOL BOOL)) (= g_s78_114 e112) (mem g_s79_115 (|-->| BOOL BOOL)) (= g_s79_115 e112) (mem g_s80_116 (|-->| BOOL BOOL)) (= g_s80_116 e112) (mem g_s81_117 (|-->| (set_prod g_s9_10 g_s8_9) BOOL)) (= g_s81_117 e118) (mem g_s84_119 (|-->| (set_prod g_s8_9 g_s8_9) BOOL)) (= g_s84_119 g_s84_119) (mem g_s85_120 (|>->>| g_s8_9 g_s8_9)) (= g_s85_120 e121) (mem g_s87_122 (|>->>| g_s9_10 g_s9_10)) (= g_s87_122 g_s85_120) (= g_s88_124 e123) (= g_s90_125 e112) (mem g_s91_127 (|-->| g_s92_126 g_s6_7)) (mem g_s93_129 (|-->| g_s94_128 g_s6_7)) (mem g_s95_131 (|-->| g_s96_130 g_s6_7)) (mem g_s97_133 (|-->| g_s98_132 g_s9_10)) (mem g_s99_135 (|-->| g_s100_134 g_s9_10)) (mem g_s101_137 (|-->| g_s102_136 g_s9_10)) (mem g_s103_139 (|-->| g_s104_138 g_s6_7)) (mem g_s105_141 (|-->| g_s106_140 g_s9_10)) (mem g_s107_143 (|-->| g_s108_142 g_s9_10)) (mem g_s109_145 (|-->| g_s110_144 g_s9_10)) (mem g_s111_147 (|-->| g_s112_146 g_s9_10)) (mem g_s113_149 (|-->| g_s114_148 g_s9_10)) (mem g_s115_151 (|-->| g_s116_150 g_s9_10)) (mem g_s117_153 (|-->| g_s118_152 g_s9_10))))
(define-fun |def_seext| () Bool true)
(define-fun |def_mchcst| () Bool true)
(define-fun |def_aprp| () Bool true)
(define-fun |def_abs| () Bool (and (mem g_s119_154 NAT) (mem g_s120_155 NAT) (mem g_s121_156 NAT) (mem g_s122_157 NAT)))
(define-fun |def_inv| () Bool true)
(define-fun |def_ass| () Bool true)
(define-fun |def_sets| () Bool true)
(define-fun |def_imlprp| () Bool true)
(define-fun |def_imprp| () Bool true)
(define-fun |def_imext| () Bool true)
; PO group 0 
(assert |def_B definitions|)
(assert |def_ctx|)
(assert |def_mchcst|)
(assert |def_aprp|)
(assert |def_imlprp|)
(assert |def_imprp|)
(assert |def_imext|)
(assert |def_seext|)
; PO 1 in group 0
(assert (not (exists ((l_s119$1 U)(l_s120$1 U)(l_s121$1 U)(l_s122$1 U)) (and (mem l_s119$1 NAT) (mem l_s120$1 NAT) (mem l_s121$1 NAT) (mem l_s122$1 NAT)))))
(check-sat)
(exit)